
set TECH:= Sti    PV     ESt    HSt;
set HOURS:= 1	2	3	4	5	6	7	8	9	10	11	12	13	14	15 16 17	18	19	20	21	22	23	24;


param :	CI	   FCOM	VCOM	AnnuF FC      Efi ChF ReFe   RHP VAR:=
Sti	   1500	0.015	0.01	0.13  0.0475  0    0   0     2   0.2
PV	      1600	0.01	0.001	0.12  0       0    0   0     0   0.001
ESt	   65	   0.05	0.001	0.40  0      0.65  0.9 0.8  0   0.001
HSt	   20	   0.01	0.001	0.13  0      0.85  0.92 0.9   0   0.001;

param: PDem HDem:=
1	10	4
2	10	4
3	10	4
4	10	4
5	10	4
6	10	4
7	10	4
8	10	0
9	10	0
10	10	0
11	10	0
12	10	0
13	10	0
14	10	0
15	10	0
16	10	0
17	10	0
18	10	0
19	10	0
20	10	4
21	10	4
22	10	4
23	10	4
24	10	4;
param AvF (tr): 
   Sti PV  ESt  HSt:=
1	1	0	 1	1
2	1	0	 1	1
3	1	0	 1	1
4	1	0	 1	1
5	1	0	 1	1
6	1	0.05 1	1
7	1	0.2	 1	1
8	1	0.6	 1	1
9	1	0.8  1	1
10	1	0.9	 1	1
11	1	0.95 1	1
12	1	1	 1	1
13	1	1	 1	1
14	1	1	 1	1
15	1	0.95 1	1
16	1	0.9	 1	1
17	1	0.8	 1	1
18	1	0.6	 1	1
19	1	0.2	 1	1
20	1	0	 1	1
21	1	0	 1	1
22	1	0	 1	1
23	1	0	 1	1
24	1	0	 1	1;
